(set-info :smt-lib-version 2.7)
(set-logic ALL)
(set-info :source |
Generated on: 2026-06-22
Generator: pog2smtlib-2.7 github.com/CLEARSY/pog2smtlib-2.7 (-l HO_ALL -rpX)
Application: Discharging a proof obligation generated by aTelierB from an anonymized B machine
Target solver: CVC5 (--mbqi --enum-inst)
Time limit: 1200.0
|)
(set-info :license "www.gnu.org/licenses/gpl-3.0.en.html")
(set-info :category "industrial")
(set-info :status unknown)

(declare-sort |s67| 0)
(declare-sort P 1)
(declare-sort |s69| 0)
(declare-datatype C (par (T1 T2) ((maplet (fst T1) (snd T2)))))
(define-sort |POW s67| () (P |s67|))
(define-sort |POW s69| () (P |s69|))
(define-sort |(s69 x s67)| () (C |s69| |s67|))
(declare-fun |set.in s67| (|s67| |POW s67|) Bool)
(declare-fun |set.in s69| (|s69| |POW s69|) Bool)
(define-sort |POW (s69 x s67)| () (P |(s69 x s67)|))
(declare-fun |set.in (s69 x s67)| (|(s69 x s67)| |POW (s69 x s67)|) Bool)
(define-sort |POW POW (s69 x s67)| () (P |POW (s69 x s67)|))
(declare-fun |set.subseteq (s69 x s67)| (|POW (s69 x s67)| |POW (s69 x s67)|) Bool)
(assert (!
    (forall ((s |POW (s69 x s67)|) (t |POW (s69 x s67)|))
      (=
        (|set.subseteq (s69 x s67)| s t)
        (forall ((e |(s69 x s67)|)) (=> (|set.in (s69 x s67)| e s) (|set.in (s69 x s67)| e t)))
      )
    )
    :named |ax.set.subseteq (s69 x s67)|))
(declare-fun |set.in POW (s69 x s67)| (|POW (s69 x s67)| |POW POW (s69 x s67)|) Bool)
(declare-sort |s42| 0)
(declare-fun |sub-sets (s69 x s67)| (|POW (s69 x s67)|) |POW POW (s69 x s67)|)
(assert (!
  (forall ((s |POW (s69 x s67)|) (t |POW (s69 x s67)|))
    (=
      (|set.in POW (s69 x s67)| s (|sub-sets (s69 x s67)| t))
      (|set.subseteq (s69 x s67)| s t)))
  :named |ax.sub-sets (s69 x s67)|))
(declare-fun |set.product s69 s67| (|POW s69| |POW s67|) |POW (s69 x s67)|)
(assert (!
  (forall ((s1 |POW s69|) (s2 |POW s67|))
    (forall ((p |(s69 x s67)|))
      (= (|set.in (s69 x s67)| p (|set.product s69 s67| s1 s2))
        (and (|set.in s69| (fst p) s1) (|set.in s67| (snd p) s2)))))
  :named |ax.set.in.product.1 (s69 x s67)|))
(assert (!
  (forall ((s1 |POW s69|) (s2 |POW s67|))
    (forall ((x1 |s69|) (x2 |s67|))
      (= (|set.in (s69 x s67)| (maplet x1 x2) (|set.product s69 s67| s1 s2))
        (and (|set.in s69| x1 s1) (|set.in s67| x2 s2)))))
  :named |ax.set.in.product.2 (s69 x s67)|))
(define-sort |(s67 x s42)| () (C |s67| |s42|))
(define-sort |POW s42| () (P |s42|))
(define-sort |(s69 x s42)| () (C |s69| |s42|))
(declare-fun |relations s69 s67| (|POW s69| |POW s67|) |POW POW (s69 x s67)|)
(assert (!
  (forall ((X |POW s69|) (Y |POW s67|))
    (= (|relations s69 s67| X Y)
       (|sub-sets (s69 x s67)| (|set.product s69 s67| X Y))))
    :named |def.relations (s69 x s67)|))
(declare-fun |functions s69 s67| (|POW s69| |POW s67|) |POW POW (s69 x s67)|)
(assert (!
  (forall ((X |POW s69|) (Y |POW s67|))
    (forall ((f |POW (s69 x s67)|))
      (= (|set.in POW (s69 x s67)| f (|functions s69 s67| X Y))
         (forall ((p |(s69 x s67)|) (q |(s69 x s67)|))
           (=> (and (|set.in (s69 x s67)| p f) (|set.in (s69 x s67)| q f) (= (fst p) (fst q)))
               (= (snd p) (snd q)))))))
:named |ax:set.in.functions (s69 x s67)|))
(declare-fun |rel.domain s69 s67| (|POW (s69 x s67)|) |POW s69|)
(assert (!
  (forall ((r |POW (s69 x s67)|) (e |s69|))
    (= (|set.in s69| e (|rel.domain s69 s67| r))
       (exists ((y |s67|)) (|set.in (s69 x s67)| (maplet e y) r))))
  :named |ax:set.in.domain (s69 x s67)|))
(define-sort |POW (s67 x s42)| () (P |(s67 x s42)|))
(declare-fun |set.in s42| (|s42| |POW s42|) Bool)
(define-sort |POW (s69 x s42)| () (P |(s69 x s42)|))
(declare-fun |functions.partial s69 s67| (|POW s69| |POW s67|) |POW POW (s69 x s67)|)
(assert (!
  (forall ((e1 |POW s69|) (e2 |POW s67|))
    (forall ((f |POW (s69 x s67)|))
      (= (|set.in POW (s69 x s67)| f (|functions.partial s69 s67| e1 e2))
         (and (|set.in POW (s69 x s67)| f (|relations s69 s67| e1 e2))
              (|set.in POW (s69 x s67)| f (|functions s69 s67| e1 e2))))))
  :named |ax:def.pfun (s69 x s67)|)
)
(declare-fun |relations.total s69 s67| (|POW s69| |POW s67|) |POW POW (s69 x s67)|)
(assert (!
  (forall ((X |POW s69|) (Y |POW s67|))
    (forall ((f |POW (s69 x s67)|))
      (= (|set.in POW (s69 x s67)| f (|relations.total s69 s67| X Y))
         (= (|rel.domain s69 s67| f) X))))
 :named |ax:set.in.relations.total (s69 x s67)|))
(declare-fun |set.in (s67 x s42)| (|(s67 x s42)| |POW (s67 x s42)|) Bool)
(declare-fun |set.in (s69 x s42)| (|(s69 x s42)| |POW (s69 x s42)|) Bool)
(declare-const |set.empty (s69 x s67)| |POW (s69 x s67)|)
(assert (!
  (forall ((e |(s69 x s67)|)) (not (|set.in (s69 x s67)| e |set.empty (s69 x s67)|)))
  :named |ax.set.in.empty (s69 x s67)|))
(declare-fun |functions.total s69 s67| (|POW s69| |POW s67|) |POW POW (s69 x s67)|)
(assert (!
  (forall ((e1 |POW s69|) (e2 |POW s67|))
    (forall ((f |POW (s69 x s67)|))
      (= (|set.in POW (s69 x s67)| f (|functions.total s69 s67| e1 e2))
         (and (|set.in POW (s69 x s67)| f (|functions.partial s69 s67| e1 e2))
              (|set.in POW (s69 x s67)| f (|relations.total s69 s67| e1 e2))))))
  :named |ax:def.tfun (s69 x s67)|))
(declare-const |set.empty (s67 x s42)| |POW (s67 x s42)|)
(assert (!
  (forall ((e |(s67 x s42)|)) (not (|set.in (s67 x s42)| e |set.empty (s67 x s42)|)))
  :named |ax.set.in.empty (s67 x s42)|))
(declare-fun |rel.domain s67 s42| (|POW (s67 x s42)|) |POW s67|)
(assert (!
  (forall ((r |POW (s67 x s42)|) (e |s67|))
    (= (|set.in s67| e (|rel.domain s67 s42| r))
       (exists ((y |s42|)) (|set.in (s67 x s42)| (maplet e y) r))))
  :named |ax:set.in.domain (s67 x s42)|))
(declare-const |set.empty (s69 x s42)| |POW (s69 x s42)|)
(assert (!
  (forall ((e |(s69 x s42)|)) (not (|set.in (s69 x s42)| e |set.empty (s69 x s42)|)))
  :named |ax.set.in.empty (s69 x s42)|))
(declare-fun |rel.domain s69 s42| (|POW (s69 x s42)|) |POW s69|)
(assert (!
  (forall ((r |POW (s69 x s42)|) (e |s69|))
    (= (|set.in s69| e (|rel.domain s69 s42| r))
       (exists ((y |s42|)) (|set.in (s69 x s42)| (maplet e y) r))))
  :named |ax:set.in.domain (s69 x s42)|))
(assert (!
  (not
    (|set.in POW (s69 x s67)| |set.empty (s69 x s67)| (|functions.total s69 s67| (|rel.domain s69 s42| |set.empty (s69 x s42)|) (|rel.domain s67 s42| |set.empty (s67 x s42)|))))
  :named |Goal|))
(check-sat)
(exit)
